3 100 1735
5 2 3 3 7 7 5 8 4 2
1 1 3
2
4
2 8 5
0 40.0 50.0 0.0 0.0 0 1236
2 45.0 68.0 90.0 10.0 0 1127 75 0 0 0 0 0 1 0 0 0 0
3 45.0 70.0 90.0 30.0 0 1125 22 0 0 0 0 0 1 0 0 0 0
4 42.0 66.0 90.0 10.0 0 1129 23 0 0 0 0 0 1 0 0 0 0
5 42.0 68.0 90.0 10.0 727 782 74 1 0 0 0 0 0 0 0 0 1
6 42.0 65.0 90.0 10.0 0 1130 67 0 0 0 0 0 1 0 0 0 0
7 40.0 69.0 90.0 20.0 0 1127 67 0 1 0 0 0 1 0 1 0 0
8 40.0 66.0 90.0 20.0 0 1130 70 0 0 0 1 0 0 0 0 0 0
9 38.0 68.0 90.0 20.0 255 324 1 0 0 0 1 0 0 0 1 0 0
10 38.0 70.0 90.0 10.0 534 605 7 0 0 0 0 0 0 0 0 1 1
11 35.0 66.0 90.0 10.0 0 1129 66 0 0 1 0 0 0 0 0 0 1
12 35.0 69.0 90.0 10.0 448 505 92 0 1 0 0 0 0 0 0 0 0
13 25.0 85.0 90.0 20.0 0 1107 1 0 0 0 0 0 1 0 0 0 0
14 22.0 75.0 90.0 30.0 30 92 51 0 0 0 0 0 1 0 1 0 0
15 22.0 85.0 90.0 10.0 0 1106 27 0 1 0 0 0 0 0 0 0 0
16 20.0 80.0 90.0 40.0 384 429 72 0 0 0 0 0 1 0 0 0 0
17 20.0 85.0 90.0 40.0 0 1105 81 1 0 0 0 1 1 0 0 0 0
18 18.0 75.0 90.0 20.0 0 1112 83 0 0 0 0 1 0 0 0 1 0
19 15.0 75.0 90.0 20.0 0 1110 89 0 0 0 0 0 1 0 0 0 0
20 15.0 80.0 90.0 10.0 0 1106 56 0 1 0 0 0 0 0 0 0 0
21 30.0 50.0 90.0 10.0 0 1136 6 0 1 0 1 0 1 0 0 1 0
22 30.0 52.0 90.0 20.0 0 1135 34 0 0 0 0 1 0 0 0 0 0
23 28.0 52.0 90.0 20.0 0 1133 77 0 0 0 0 0 0 0 0 1 0
24 28.0 55.0 90.0 10.0 732 777 60 0 0 0 1 1 1 0 0 0 0
25 25.0 50.0 90.0 10.0 0 1131 84 0 0 0 1 0 0 0 0 0 0
26 25.0 52.0 90.0 40.0 169 224 58 0 0 1 0 0 0 0 0 0 0
27 25.0 55.0 90.0 10.0 0 1130 90 0 0 0 0 0 1 0 0 0 0
28 23.0 52.0 90.0 10.0 0 1128 38 0 1 0 1 0 1 0 0 0 1
29 23.0 55.0 90.0 20.0 0 1128 40 0 1 1 0 0 1 0 1 1 0
30 20.0 50.0 90.0 10.0 0 1126 72 0 0 0 0 1 0 0 0 0 0
31 20.0 55.0 90.0 10.0 0 1125 60 0 0 0 0 0 0 0 1 0 0
32 10.0 35.0 90.0 20.0 0 1112 37 0 1 1 0 1 0 0 0 0 0
33 10.0 40.0 90.0 30.0 0 1114 19 1 0 0 0 0 0 0 0 0 0
34 8.0 40.0 90.0 40.0 0 1112 57 0 0 0 0 1 1 0 0 0 0
35 8.0 45.0 90.0 20.0 0 1113 84 0 0 0 0 0 0 0 1 0 0
36 5.0 35.0 90.0 10.0 0 1107 24 0 0 0 0 0 0 0 0 1 1
37 5.0 45.0 90.0 10.0 0 1110 90 1 0 1 0 0 1 0 0 0 0
38 2.0 40.0 90.0 20.0 0 1106 34 0 0 0 0 0 0 1 0 0 0
39 0.0 40.0 90.0 30.0 479 522 56 0 0 0 0 0 0 1 0 0 1
40 0.0 45.0 90.0 20.0 0 1105 7 0 0 1 0 0 0 0 0 0 0
41 35.0 30.0 90.0 10.0 0 1125 35 0 0 0 0 0 1 0 0 0 0
42 35.0 32.0 90.0 10.0 0 1127 93 0 0 0 0 0 0 1 0 0 0
43 33.0 32.0 90.0 20.0 0 1126 8 0 0 0 0 1 1 0 1 0 0
44 33.0 35.0 90.0 10.0 0 1129 11 0 0 1 0 0 0 0 0 0 0
45 32.0 30.0 90.0 10.0 359 412 4 0 0 0 0 0 0 0 0 0 1
46 30.0 30.0 90.0 10.0 0 1123 44 1 0 0 0 0 0 1 0 1 1
47 30.0 32.0 90.0 30.0 0 1125 4 0 0 0 0 0 1 0 0 0 0
48 30.0 35.0 90.0 10.0 0 1127 83 0 1 1 0 0 0 1 0 1 1
49 28.0 30.0 90.0 10.0 0 1122 87 0 1 0 0 0 0 0 0 0 1
50 28.0 35.0 90.0 10.0 0 1126 92 1 0 0 1 1 1 0 0 1 0
51 26.0 32.0 90.0 10.0 0 1123 60 1 1 0 0 1 0 1 0 0 0
52 25.0 30.0 90.0 10.0 0 1121 3 0 0 0 1 0 0 0 0 0 1
53 25.0 35.0 90.0 10.0 0 1124 98 0 0 0 0 0 1 0 0 0 0
54 44.0 5.0 90.0 20.0 286 347 96 0 0 0 0 0 1 0 1 0 0
55 42.0 10.0 90.0 40.0 0 1105 83 0 0 0 0 1 0 0 0 0 0
56 42.0 15.0 90.0 10.0 95 158 10 0 1 0 0 0 0 1 1 0 0
57 40.0 5.0 90.0 30.0 0 1101 20 0 0 0 1 0 1 1 0 0 0
58 40.0 15.0 90.0 40.0 0 1111 87 0 1 0 0 0 0 0 1 0 0
59 38.0 5.0 90.0 30.0 471 534 37 1 0 0 0 0 0 0 0 0 0
60 38.0 15.0 90.0 10.0 0 1110 33 0 0 0 0 0 1 1 0 0 0
61 35.0 5.0 90.0 20.0 0 1100 58 0 1 0 0 0 1 1 0 0 0
62 50.0 30.0 90.0 10.0 0 1123 65 1 0 0 0 0 0 0 0 0 1
63 50.0 35.0 90.0 20.0 262 317 29 1 0 0 1 0 0 1 0 0 0
64 50.0 40.0 90.0 50.0 0 1131 37 0 0 0 1 0 0 1 0 0 0
65 48.0 30.0 90.0 10.0 0 1124 68 1 0 0 0 0 0 0 0 0 1
66 48.0 40.0 90.0 10.0 0 1133 53 1 1 1 0 0 0 0 0 0 1
67 47.0 35.0 90.0 10.0 0 1129 58 0 1 0 0 0 0 0 0 0 0
68 47.0 40.0 90.0 10.0 12 77 50 0 1 0 0 1 0 1 0 0 0
69 45.0 30.0 90.0 10.0 0 1125 88 0 0 0 0 0 1 0 0 0 0
70 45.0 35.0 90.0 10.0 916 969 56 0 1 0 0 0 0 0 0 0 0
71 95.0 30.0 90.0 30.0 0 1087 80 0 0 0 0 0 1 0 0 0 0
72 95.0 35.0 90.0 20.0 0 1088 30 0 0 0 0 1 0 0 1 1 0
73 53.0 30.0 90.0 10.0 0 1122 38 0 0 0 0 0 1 0 0 0 0
74 92.0 30.0 90.0 10.0 0 1090 34 1 0 1 1 0 0 0 1 1 0
75 53.0 35.0 90.0 50.0 353 412 79 0 0 0 0 0 1 1 0 0 0
76 45.0 65.0 90.0 20.0 0 1130 90 0 0 0 0 0 1 0 0 0 0
77 90.0 35.0 90.0 10.0 203 260 73 0 0 0 0 0 0 0 1 0 1
78 88.0 30.0 90.0 10.0 574 643 10 0 0 0 0 0 0 0 0 0 1
79 88.0 35.0 90.0 20.0 0 1095 45 0 0 0 1 0 0 0 0 0 0
80 87.0 30.0 90.0 10.0 668 731 49 0 0 0 0 0 0 0 0 1 0
81 85.0 25.0 90.0 10.0 0 1094 38 0 1 0 0 0 0 0 0 0 1
82 85.0 35.0 90.0 30.0 0 1098 72 0 0 0 0 0 1 0 0 0 0
83 75.0 55.0 90.0 20.0 0 1110 66 0 0 1 0 0 0 0 0 1 0
84 72.0 55.0 90.0 10.0 0 1113 26 0 0 1 1 0 0 0 0 0 0
85 70.0 58.0 90.0 20.0 458 523 55 0 0 0 0 0 1 0 0 0 0
86 68.0 60.0 90.0 30.0 0 1116 91 1 0 0 0 0 0 0 0 0 0
87 66.0 55.0 90.0 10.0 0 1119 38 0 0 0 0 1 0 1 0 0 0
88 65.0 55.0 90.0 20.0 85 144 59 0 0 1 0 0 0 0 1 0 0
89 65.0 60.0 90.0 30.0 0 1119 83 0 0 0 0 0 0 0 1 0 0
90 63.0 58.0 90.0 10.0 0 1121 78 0 0 0 1 1 1 0 0 0 0
91 60.0 55.0 90.0 10.0 0 1125 90 0 0 1 0 0 0 0 0 0 0
92 60.0 60.0 90.0 10.0 0 1123 52 1 0 1 1 1 0 0 0 1 1
93 67.0 85.0 90.0 20.0 368 441 44 1 0 0 1 0 0 1 0 0 0
94 65.0 85.0 90.0 40.0 0 1102 48 0 0 0 0 0 1 0 0 0 0
95 65.0 82.0 90.0 10.0 0 1105 91 0 0 1 0 0 0 0 0 1 0
96 62.0 80.0 90.0 30.0 0 1108 31 1 0 0 0 0 0 0 0 0 1
97 60.0 80.0 90.0 10.0 0 1109 2 1 0 0 0 1 0 0 0 0 0
98 60.0 85.0 90.0 30.0 0 1105 27 0 0 0 0 0 0 0 1 0 0
99 58.0 75.0 90.0 20.0 0 1115 39 0 0 0 0 0 1 0 0 0 0
100 55.0 80.0 90.0 10.0 743 820 91 0 0 0 0 0 0 1 0 0 1
101 55.0 85.0 90.0 20.0 647 726 72 0 0 0 0 0 0 1 0 0 0